
Gurobi 11.0.1 (win64) logging started Thu May 16 18:34:33 2024

Set parameter LogFile to value "output/solver_log3.txt"
Gurobi Optimizer version 11.0.1 build v11.0.1rc0 (win64 - Windows 11.0 (22631.2))

CPU model: 11th Gen Intel(R) Core(TM) i7-1165G7 @ 2.80GHz, instruction set [SSE2|AVX|AVX2|AVX512]
Thread count: 4 physical cores, 8 logical processors, using up to 8 threads

Optimize a model with 6181 rows, 1609 columns and 119236 nonzeros
Model fingerprint: 0xa5512db6
Variable types: 568 continuous, 1041 integer (1041 binary)
Coefficient statistics:
  Matrix range     [4e-01, 1e+05]
  Objective range  [1e+00, 1e+02]
  Bounds range     [1e+00, 1e+00]
  RHS range        [1e-02, 1e+05]

User MIP start produced solution with objective 40068.1 (0.01s)
User MIP start produced solution with objective 40068.1 (0.01s)
Loaded user MIP start with objective 40068.1

Presolve removed 1299 rows and 663 columns
Presolve time: 0.13s
Presolved: 4882 rows, 946 columns, 94176 nonzeros
Variable types: 527 continuous, 419 integer (413 binary)

Root relaxation: objective 5.351393e+04, 1806 iterations, 0.13 seconds (0.21 work units)

    Nodes    |    Current Node    |     Objective Bounds      |     Work
 Expl Unexpl |  Obj  Depth IntInf | Incumbent    BestBd   Gap | It/Node Time

     0     0 53513.9338    0   81 40068.0533 53513.9338  33.6%     -    0s
     0     0 52619.8099    0  108 40068.0533 52619.8099  31.3%     -    0s
     0     0 52569.4004    0  108 40068.0533 52569.4004  31.2%     -    0s
     0     0 52361.1947    0  101 40068.0533 52361.1947  30.7%     -    1s
     0     0 52303.6115    0  101 40068.0533 52303.6115  30.5%     -    1s
     0     0 52303.6115    0  102 40068.0533 52303.6115  30.5%     -    1s
     0     0 52303.6115    0  103 40068.0533 52303.6115  30.5%     -    1s
     0     0 52090.4318    0  107 40068.0533 52090.4318  30.0%     -    1s
     0     0 52010.2730    0  119 40068.0533 52010.2730  29.8%     -    2s
     0     0 52010.2730    0  135 40068.0533 52010.2730  29.8%     -    2s
     0     0 52010.2730    0  126 40068.0533 52010.2730  29.8%     -    2s
     0     0 52010.2730    0  125 40068.0533 52010.2730  29.8%     -    2s
     0     0 51463.5703    0  100 40068.0533 51463.5703  28.4%     -    2s
     0     0 51262.4176    0  101 40068.0533 51262.4176  27.9%     -    3s
     0     0 51262.4176    0   99 40068.0533 51262.4176  27.9%     -    3s
     0     0 51262.4176    0  106 40068.0533 51262.4176  27.9%     -    3s
     0     0 51262.4176    0  107 40068.0533 51262.4176  27.9%     -    3s
     0     0 51262.4176    0  107 40068.0533 51262.4176  27.9%     -    3s
     0     0 51262.4176    0  113 40068.0533 51262.4176  27.9%     -    4s
     0     0 51262.4176    0  120 40068.0533 51262.4176  27.9%     -    4s
     0     0 51262.4176    0  117 40068.0533 51262.4176  27.9%     -    4s
     0     0 51262.4176    0  117 40068.0533 51262.4176  27.9%     -    4s
     0     0 51262.4176    0  120 40068.0533 51262.4176  27.9%     -    4s
     0     0 51262.4176    0  119 40068.0533 51262.4176  27.9%     -    4s
     0     0 51262.4176    0  121 40068.0533 51262.4176  27.9%     -    5s
     0     0 51262.4176    0  118 40068.0533 51262.4176  27.9%     -    5s
     0     0 51262.4176    0  123 40068.0533 51262.4176  27.9%     -    5s
     0     0 51224.4381    0  123 40068.0533 51224.4381  27.8%     -    5s
     0     0 51179.4956    0  117 40068.0533 51179.4956  27.7%     -    5s
     0     0 51179.4956    0  117 40068.0533 51179.4956  27.7%     -    5s
     0     0 51159.8983    0  117 40068.0533 51159.8983  27.7%     -    6s
     0     0 51159.8983    0  128 40068.0533 51159.8983  27.7%     -    6s
     0     0 51159.8983    0  123 40068.0533 51159.8983  27.7%     -    6s
     0     0 51108.2645    0  131 40068.0533 51108.2645  27.6%     -    6s
     0     0 51108.2645    0  131 40068.0533 51108.2645  27.6%     -    6s
     0     2 51108.2645    0  131 40068.0533 51108.2645  27.6%     -    7s
    40    45 45295.1353    9  103 40068.0533 50911.6519  27.1%  1064   10s
H  101    80                    40068.238902 50911.6519  27.1%   780   14s
   122    95 45991.5224    5  107 40068.2389 50416.7171  25.8%   790   15s
H  171   108                    40068.255980 50403.9553  25.8%   803   17s
   241   147     cutoff   12      40068.2560 50047.5635  24.9%   821   20s
H  353   171                    40068.441596 48984.7848  22.3%   786   22s
   425   181     cutoff   12      40068.4416 46767.6457  16.7%   776   25s
   681   199     cutoff   12      40068.4416 45904.6682  14.6%   730   32s
H  707   199                    40098.238624 45894.8670  14.5%   723   32s
H  708   200                    40098.468110 45894.8670  14.5%   723   33s
   756   203     cutoff    8      40098.4681 45749.8356  14.1%   708   36s
H  784   236                    40098.994381 45749.8356  14.1%   712   37s
   964   242     cutoff   13      40098.9944 45460.4883  13.4%   652   40s
  1378   317 40828.2257   11   94 40098.9944 44430.4133  10.8%   560   45s
H 1483   305                    40099.269018 43469.9562  8.41%   567   48s
  1598   298     cutoff   10      40099.2690 43093.4920  7.47%   555   50s
  2053   265 40237.9455   10   83 40099.2690 41929.1990  4.56%   518   55s
  2699   778 40104.7871   59   63 40099.2690 40125.5195  0.07%   422   60s

Cutting planes:
  Gomory: 5
  Implied bound: 22
  MIR: 157
  RLT: 13
  Relax-and-lift: 1
  BQP: 5

Explored 3269 nodes (1193732 simplex iterations) in 60.02 seconds (132.18 work units)
Thread count was 8 (of 8 available processors)

Solution count 9: 40099.3 40099.3 40099 ... 40068.1

Time limit reached
Best objective 4.009926901795e+04, best bound 4.012551943403e+04, gap 0.0655%
